&CONTROL
   calculation      = 'relax'
   prefix           = 'ter-1'
   max_seconds      = 78000
/
&SYSTEM
   ecutwfc          = 60.0
   ecutrho          = 480.0
   occupations      = 'smearing'
   degauss          = 0.01
   lda_plus_u       = .true.
   ntyp             = 4
   nat              = 80
   hubbard_u(2)     = 3.0
   ibrav            = 0
/
&ELECTRONS
   electron_maxstep = 200
   mixing_mode      = 'local-TF'
   mixing_beta      = 0.5
/
&IONS
/
&CELL
/

ATOMIC_SPECIES
La 138.90547 La.pbe-nsp-van.UPF
Ti 47.867 Ti_pbe_2_new.van.UPF
O 15.999 O.pbe-van_ak.UPF
N 14.007 N.pbe-van_ak.UPF

K_POINTS automatic
4 4 1  0 0 0

CELL_PARAMETERS angstrom
7.86590908181075 0.00000000000000 0.00000000000000
0.00032177788196 7.97864105972322 0.00000000000000
0.00000000000000 0.00000000000000 29.47166759571824

ATOMIC_POSITIONS angstrom
La 7.7934245784 3.9053450096 2.4172852013  0 0 0
La 3.8601972738 0.1610958289 6.3602650523  0 0 0
La 3.8605197609 4.1247577167 2.3710523191  0 0 0
La 3.8603392119 4.0631239930 6.2734989127  0 0 0
La 3.8603397506 0.0481447439 2.2842865201  0 0 0
La 7.7932448915 0.0032964028 2.5040293733  0 0 0
Ti 5.8547402548 1.9315855451 0.3209690705  0 0 0
Ti 5.8547402077 5.9465652464 4.3101822142  0 0 0
Ti 1.9215952502 1.9539532171 4.3134583126  0 0 0
Ti 1.9219173914 5.9176150623 0.3242457614  0 0 0
Ti 1.9217535142 6.0983531546 4.4675405690  0 0 0
Ti 1.9217536576 2.0833732419 0.4783274283  0 0 0
Ti 5.8545816953 2.1122947051 4.4642375656  0 0 0
Ti 5.8549037927 6.0759575755 0.4750242239  0 0 0
O 0.0277783050 5.7149005355 3.9992121734  0 0 0
O 0.0277782408 1.6999210905 0.0100000000  0 0 0
O 3.9607008857 6.3303322571 4.7781755728  0 0 0
O 3.9607007292 2.3153528718 0.7889629802  0 0 0
O 3.9605429728 1.6419612416 4.0833567798  0 0 0
O 3.9608651084 5.6056236136 0.0941433965  0 0 0
O 0.0276199133 2.4246170363 4.6940209998  0 0 0
O 0.0279420125 6.3882798301 0.7048075987  0 0 0
O 6.3184746092 0.0247958446 4.5166765956  0 0 0
O 6.3187961779 3.9884576330 0.5274637695  0 0 0
O 2.3855290747 4.0418826226 4.2595171909  0 0 0
O 2.3855286007 0.0269033775 0.2703044619  0 0 0
O 2.3854563378 2.1751754527 6.3685236056  0 0 0
O 2.3857792045 6.1388372441 2.3793107976  0 0 0
O 6.3187231584 1.8925977869 2.4087587073  0 0 0
N 5.5695550773 4.0265570118 4.2817757231  0 0 0
N 5.5695550411 0.0115781641 0.2925626572  0 0 0
N 1.6364651832 0.0400181936 4.4968856413  0 0 0
N 1.6367866322 4.0036798665 0.5076734308  0 0 0
N 1.6365150115 1.9122476611 2.3933825988  0 0 0
N 1.6365150008 5.9272265449 6.3825952458  0 0 0
N 5.5696047794 6.1167219271 2.3948061046  0 0 0
La 7.7934252762 7.9203247164 6.4064984768  0 0 0
La 7.7931021128 3.9566624315 10.3957106720 
La 3.8598748082 0.2124132508 14.3386905230 
La 3.8601972953 4.1760751385 10.3494777898 
La 3.8600167463 4.1144414148 14.2519243834 
La 3.8600172850 0.0994621658 10.2627119908 
La 7.7929224259 0.0546138246 10.4824548440 
La 7.7932443758 4.0182756099 6.4932421250  0 0 0
Ti 5.8544177892 1.9829029670 8.2993945412 
Ti 5.8544177421 5.9978826682 12.2886076849 
Ti 1.9212727846 2.0052706390 12.2918837833 
Ti 1.9215949258 5.9689324842 8.3026712321 
Ti 1.9214310485 6.1496705765 12.4459660397 
Ti 1.9214311920 2.1346906637 8.4567528991 
Ti 5.8542592297 2.1636121269 12.4426630363 
Ti 5.8545813271 6.1272749974 8.4534496946 
O 0.0274558394 5.7662179574 11.9776376441 
O 0.0274557752 1.7512385124 7.9884254707 
O 3.9603784201 6.3816496790 12.7566010435 
O 3.9603782636 2.3666702936 8.7673884509 
O 3.9602205072 1.6932786635 12.0617822506 
O 3.9605426428 5.6569410354 8.0725688672 
O 0.0272974476 2.4759344582 12.6724464705 
O 0.0276195468 6.4395972520 8.6832330694 
O 6.3181521436 0.0761132665 12.4951020663 
O 6.3184737123 4.0397750549 8.5058892402 
O 2.3852066091 4.0932000445 12.2379426616 
O 2.3852061351 0.0782207994 8.2487299327 
O 2.3851338721 2.2264928746 14.3469490763 
O 2.3854567389 6.1901546659 10.3577362683 
O 6.3184006927 1.9439152088 10.3871841780 
O 6.3187236246 5.9075773688 6.3979709209  0 0 0
N 5.5692326117 4.0778744337 12.2602011939 
N 5.5692325755 0.0628955859 8.2709881280 
N 1.6361427175 0.0913356154 12.4753111121 
N 1.6364641666 4.0549972883 8.4860989016 
N 1.6361925458 1.9635650830 10.3718080695 
N 1.6361925352 5.9785439668 14.3610207165 
N 5.5692823506 2.1530600671 6.3840196233  0 0 0
N 5.5692823138 6.1680393489 10.3732315754 
La 7.7931028106 7.9716421382 14.3849239475 
La 7.7929219102 4.0695930318 14.4716675957 
O 6.3184011590 5.9588947906 14.3763963916 
N 5.5689598850 2.2043774890 14.3624450940 
