#=======================================================
# FHI-aims file: datas/feo.in
# Created using the Atomic Simulation Environment (ASE)
# Fri Jul 10 09:57:31 2020
#=======================================================
lattice_vector 2.1669806682077515 2.1669806682077515 4.3339613364155030 
lattice_vector 2.1669806682077515 4.3339613364155030 2.1669806682077515 
lattice_vector 4.3339613364155030 2.1669806682077515 2.1669806682077515 
atom 2.1669806682077515 2.1669806682077515 2.1669806682077515 O
atom 6.5009420046232549 6.5009420046232549 6.5009420046232549 O
atom 0.0000000000000000 0.0000000000000000 0.0000000000000000 Fe
atom 4.3339613364155030 4.3339613364155030 4.3339613364155030 Fe
