&CONTROL
   verbosity        = 'high'
   prefix           = 'feo'
/
&SYSTEM
   ecutwfc          = 30.0
   ecutrho          = 240.0
   occupations      = 'smearing'
   degauss          = 0.03
   smearing         = 'gaussian'
   nspin            = 2
   lda_plus_u       = .true.
   starting_magnetization(3) = 0.5
   starting_magnetization(2) = -0.5
   hubbard_u(3)     = 4.3
   hubbard_u(2)     = 4.3
   ntyp             = 3
   nat              = 4
   ibrav            = 0
/
&ELECTRONS
   conv_thr         = 1e-08
   mixing_beta      = 0.3
/
&IONS
/
&CELL
/

ATOMIC_SPECIES
O 15.999 O.pbe-n-rrkjus_psl.1.0.0.UPF
Fe1 15.999 Fe.pbe-spn-rrkjus_psl.1.0.0.UPF
Fe 55.845 Fe.pbe-spn-rrkjus_psl.1.0.0.UPF

K_POINTS automatic
4 4 4  0 0 0

CELL_PARAMETERS angstrom
2.16698066820775 2.16698066820775 4.33396133641550
2.16698066820775 4.33396133641550 2.16698066820775
4.33396133641550 2.16698066820775 2.16698066820775

ATOMIC_POSITIONS angstrom
O 2.1669806682 2.1669806682 2.1669806682 
Fe1 6.5009420046 6.5009420046 6.5009420046 
Fe 0.0000000000 0.0000000000 0.0000000000 
Fe 4.3339613364 4.3339613364 4.3339613364 
