&CONTROL
   calculation      = 'scf'
   verbosity        = 'high'
   restart_mode     = 'from_scratch'
/
&SYSTEM
   ecutwfc          = 20.0
   ntyp             = 1
   nat              = 2
   ibrav            = 0
/
&ELECTRONS
   startingwfc      = 'atomic+random'
/
&IONS
/
&CELL
/

ATOMIC_SPECIES
Si 28.085 Si.pbe-n-kjpaw_psl.1.0.0.UPF

K_POINTS crystal_b
100
0.00000000000000 0.00000000000000 0.00000000000000 0
0.01515151515152 0.00000000000000 0.01515151515152 0
0.03030303030303 0.00000000000000 0.03030303030303 0
0.04545454545455 0.00000000000000 0.04545454545455 0
0.06060606060606 0.00000000000000 0.06060606060606 0
0.07575757575758 0.00000000000000 0.07575757575758 0
0.09090909090909 0.00000000000000 0.09090909090909 0
0.10606060606061 0.00000000000000 0.10606060606061 0
0.12121212121212 0.00000000000000 0.12121212121212 0
0.13636363636364 0.00000000000000 0.13636363636364 0
0.15151515151515 0.00000000000000 0.15151515151515 0
0.16666666666667 0.00000000000000 0.16666666666667 0
0.18181818181818 0.00000000000000 0.18181818181818 0
0.19696969696970 0.00000000000000 0.19696969696970 0
0.21212121212121 0.00000000000000 0.21212121212121 0
0.22727272727273 0.00000000000000 0.22727272727273 0
0.24242424242424 0.00000000000000 0.24242424242424 0
0.25757575757576 0.00000000000000 0.25757575757576 0
0.27272727272727 0.00000000000000 0.27272727272727 0
0.28787878787879 0.00000000000000 0.28787878787879 0
0.30303030303030 0.00000000000000 0.30303030303030 0
0.31818181818182 0.00000000000000 0.31818181818182 0
0.33333333333333 0.00000000000000 0.33333333333333 0
0.34848484848485 0.00000000000000 0.34848484848485 0
0.36363636363636 0.00000000000000 0.36363636363636 0
0.37878787878788 0.00000000000000 0.37878787878788 0
0.39393939393939 0.00000000000000 0.39393939393939 0
0.40909090909091 0.00000000000000 0.40909090909091 0
0.42424242424242 0.00000000000000 0.42424242424242 0
0.43939393939394 0.00000000000000 0.43939393939394 0
0.45454545454545 0.00000000000000 0.45454545454545 0
0.46969696969697 0.00000000000000 0.46969696969697 0
0.48484848484848 0.00000000000000 0.48484848484848 0
0.50000000000000 0.00000000000000 0.50000000000000 0
0.50000000000000 0.01470588235294 0.51470588235294 0
0.50000000000000 0.02941176470588 0.52941176470588 0
0.50000000000000 0.04411764705882 0.54411764705882 0
0.50000000000000 0.05882352941176 0.55882352941176 0
0.50000000000000 0.07352941176471 0.57352941176471 0
0.50000000000000 0.08823529411765 0.58823529411765 0
0.50000000000000 0.10294117647059 0.60294117647059 0
0.50000000000000 0.11764705882353 0.61764705882353 0
0.50000000000000 0.13235294117647 0.63235294117647 0
0.50000000000000 0.14705882352941 0.64705882352941 0
0.50000000000000 0.16176470588235 0.66176470588235 0
0.50000000000000 0.17647058823529 0.67647058823529 0
0.50000000000000 0.19117647058824 0.69117647058824 0
0.50000000000000 0.20588235294118 0.70588235294118 0
0.50000000000000 0.22058823529412 0.72058823529412 0
0.50000000000000 0.23529411764706 0.73529411764706 0
0.50000000000000 0.25000000000000 0.75000000000000 0
0.48863636363636 0.26136363636364 0.75000000000000 0
0.47727272727273 0.27272727272727 0.75000000000000 0
0.46590909090909 0.28409090909091 0.75000000000000 0
0.45454545454545 0.29545454545455 0.75000000000000 0
0.44318181818182 0.30681818181818 0.75000000000000 0
0.43181818181818 0.31818181818182 0.75000000000000 0
0.42045454545455 0.32954545454545 0.75000000000000 0
0.40909090909091 0.34090909090909 0.75000000000000 0
0.39772727272727 0.35227272727273 0.75000000000000 0
0.38636363636364 0.36363636363636 0.75000000000000 0
0.37500000000000 0.37500000000000 0.75000000000000 0
0.36513157894737 0.36513157894737 0.73026315789474 0
0.35526315789474 0.35526315789474 0.71052631578947 0
0.34539473684211 0.34539473684211 0.69078947368421 0
0.33552631578947 0.33552631578947 0.67105263157895 0
0.32565789473684 0.32565789473684 0.65131578947368 0
0.31578947368421 0.31578947368421 0.63157894736842 0
0.30592105263158 0.30592105263158 0.61184210526316 0
0.29605263157895 0.29605263157895 0.59210526315789 0
0.28618421052632 0.28618421052632 0.57236842105263 0
0.27631578947368 0.27631578947368 0.55263157894737 0
0.26644736842105 0.26644736842105 0.53289473684211 0
0.25657894736842 0.25657894736842 0.51315789473684 0
0.24671052631579 0.24671052631579 0.49342105263158 0
0.23684210526316 0.23684210526316 0.47368421052632 0
0.22697368421053 0.22697368421053 0.45394736842105 0
0.21710526315789 0.21710526315789 0.43421052631579 0
0.20723684210526 0.20723684210526 0.41447368421053 0
0.19736842105263 0.19736842105263 0.39473684210526 0
0.18750000000000 0.18750000000000 0.37500000000000 0
0.17763157894737 0.17763157894737 0.35526315789474 0
0.16776315789474 0.16776315789474 0.33552631578947 0
0.15789473684211 0.15789473684211 0.31578947368421 0
0.14802631578947 0.14802631578947 0.29605263157895 0
0.13815789473684 0.13815789473684 0.27631578947368 0
0.12828947368421 0.12828947368421 0.25657894736842 0
0.11842105263158 0.11842105263158 0.23684210526316 0
0.10855263157895 0.10855263157895 0.21710526315789 0
0.09868421052632 0.09868421052632 0.19736842105263 0
0.08881578947368 0.08881578947368 0.17763157894737 0
0.07894736842105 0.07894736842105 0.15789473684211 0
0.06907894736842 0.06907894736842 0.13815789473684 0
0.05921052631579 0.05921052631579 0.11842105263158 0
0.04934210526316 0.04934210526316 0.09868421052632 0
0.03947368421053 0.03947368421053 0.07894736842105 0
0.02960526315789 0.02960526315789 0.05921052631579 0
0.01973684210526 0.01973684210526 0.03947368421053 0
0.00986842105263 0.00986842105263 0.01973684210526 0
0.00000000000000 0.00000000000000 0.00000000000000 0

CELL_PARAMETERS angstrom
0.00000000000000 2.71500075441297 2.71500075441297
2.71500075441297 0.00000000000000 2.71500075441297
2.71500075441297 2.71500075441297 0.00000000000000

ATOMIC_POSITIONS angstrom
Si 0.0000000000 0.0000000000 0.0000000000 
Si 1.3574999932 1.3574999932 1.3574999932 
