&DOS
   Emin = -2.328099999999999, 
  Emax = 27.6719, 
  DeltaE = 0.1, 
  prefix = fe, 
/ 
