&control
calculation               = 'scf'
!restart_mode             = 'restart'
wf_collect                = .true.
nstep                     = 500
!tstress                   = .true.
!tprnfor                   = .true.
verbosity                 = 'high'
pseudo_dir='/gpfs/homefs/dcb/ricca/SrMnO3/us_pbesol_2'
outdir='./tmp'
/

&system
ibrav                     = 0
nat                       = 40
ntyp                      = 4
ecutwfc                   = 70
ecutrho                   = 840
occupations               = 'smearing'
degauss                   = 0.01
nspin                     = 2
starting_magnetization(1) = 1.0
starting_magnetization(2) = -1.0
starting_magnetization(3) = -1.0
starting_magnetization(4) = 1.0
lda_plus_u                = .true.
Hubbard_U(1)              = 5.7504
Hubbard_U(2)              = 5.7606
Hubbard_U(3)              = 5.7490
Hubbard_U(4)              = 5.7551
/

&electrons
diagonalization           = 'david'
mixing_beta               = 0.6
conv_thr                  = 1.0d-10
startingwfc               = 'atomic'
/

&ions
/

&cell
/


ATOMIC_SPECIES
Mn1  54.94  Mn.pbesol-spn-rrkjus_psl.0.3.1.UPF
Mn2  54.94  Mn.pbesol-spn-rrkjus_psl.0.3.1.UPF
Mn3  54.94  Mn.pbesol-spn-rrkjus_psl.0.3.1.UPF
Mn4  54.94  Mn.pbesol-spn-rrkjus_psl.0.3.1.UPF
O    15.99  O.pbesol-n-rrkjus_psl.1.0.0.UPF
Sr   87.62  Sr.pbesol-spn-rrkjus_psl.1.0.0.UPF

CELL_PARAMETERS angstrom
     7.6802911837    0.0000000000   -0.0348490495
     0.0000000000    7.6176406929   -0.0000000000
    -0.0614301258   -0.0000000000    7.6801233835

ATOMIC_POSITIONS angstrom
Mn1	5.7448886980	-0.0000146300	1.8938935300
Mn1	1.8739930430	0.0000109970	5.7513760030
Mn2	1.9047053420	0.0000055620	1.9113134830
Mn2	5.7141764010	-0.0000091960	5.7339560490
Mn3	5.7449196280	3.8088244970	1.8938892570
Mn3	1.8739625510	3.8088221670	5.7513762180
Mn4	1.9046611470	3.8088030690	1.9113088910
Mn4	5.7142210340	3.8088435960	5.7339565820
O	1.7075945210	1.9044094500	2.1071822740
O	5.5171271190	1.9044168290	5.9297996490
O	5.9112875510	5.7132372140	5.5380832010
O	2.1017550620	5.7132298360	1.7154658240
O	5.5483626940	5.7132227600	2.0903001130
O	1.6774232230	5.7132291350	5.9477702490
O	2.0705194900	1.9044239040	5.5549649090
O	5.9414589600	1.9044175290	1.6974947740
O	5.7600688480	0.2120215680	3.8140429720
O	1.9506009060	0.2120101000	-0.0085907750
O	1.8588133310	7.4056254390	3.8312225010
O	5.6682812750	7.4056369060	7.6538562480
O	7.6649375000	7.4055999160	1.8546331950
O	3.7940780260	7.4056576810	5.7121416870
O	-0.0460553200	0.2120470910	5.7906322780
O	3.8248041550	0.2119893270	1.9331237860
O	1.8587623480	4.0208124380	3.8312229800
O	5.6683300260	4.0208659660	7.6538644350
O	5.7601198330	3.5968337700	3.8140424940
O	1.9505521540	3.5967802430	-0.0085989620
O	-0.0460513360	3.5968013720	5.7906315770
O	3.8248110140	3.5968056610	1.9331426150
O	7.6649335160	4.0208448350	1.8546338970
O	3.7940711660	4.0208405450	5.7121228590
Sr	3.8259715450	1.9044610330	3.8255276360
Sr	0.0165162970	1.9044168350	0.0028882580
Sr	3.7929106360	5.7131856300	3.8197378370
Sr	7.6023658840	5.7132298290	7.6423772170
Sr	7.6467665490	5.7132320260	3.7886936790
Sr	3.7758685260	5.7131854160	7.6461629340
Sr	-0.0278843680	1.9044146380	3.8565717940
Sr	3.8430136540	1.9044612490	-0.0008974590

K_POINTS automatic
6 6 6 0 0 0

