&CONTROL
   verbosity        = 'high'
   prefix           = 'fe'
/
&SYSTEM
   ecutwfc          = 40
   occupations      = 'smearing'
   degauss          = 0.02
   smearing         = 'gaussian'
   ntyp             = 1
   nat              = 1
   ibrav            = 0
/
&ELECTRONS
/
&IONS
/
&CELL
/

ATOMIC_SPECIES
Fe 55.845 Fe.pbe-spn-rrkjus_psl.1.0.0.UPF

K_POINTS automatic
6 6 6  0 0 0

CELL_PARAMETERS angstrom
-1.43500000000000 1.43500000000000 1.43500000000000
1.43500000000000 -1.43500000000000 1.43500000000000
1.43500000000000 1.43500000000000 -1.43500000000000

ATOMIC_POSITIONS angstrom
Fe 0.0000000000 0.0000000000 0.0000000000 
