&CONTROL
   verbosity        = 'high'
   prefix           = 'fe-fm'
/
&SYSTEM
   ecutwfc          = 40.0
   ecutrho          = 320.0
   occupations      = 'smearing'
   degauss          = 0.03
   smearing         = 'gaussian'
   nspin            = 2
   starting_magnetization(1) = 1.0
   ntyp             = 1
   nat              = 2
   ibrav            = 0
/
&ELECTRONS
   conv_thr         = 1e-08
   mixing_beta      = 0.3
/
&IONS
/
&CELL
/

ATOMIC_SPECIES
Fe 55.845 Fe.pbe-spn-rrkjus_psl.1.0.0.UPF

K_POINTS automatic
6 6 6  0 0 0

CELL_PARAMETERS angstrom
2.87000000000000 0.00000000000000 0.00000000000000
0.00000000000000 2.87000000000000 0.00000000000000
0.00000000000000 0.00000000000000 2.87000000000000

ATOMIC_POSITIONS angstrom
Fe 0.0000000000 0.0000000000 0.0000000000 
Fe 1.4350000000 1.4350000000 1.4350000000 
