&DOS
   Emin = -28.9057, 
  Emax = 1.0943000000000005, 
  DeltaE = 0.1, 
  prefix = co, 
/ 
