&CONTROL
   calculation      = 'nscf'
   verbosity        = 'high'
   restart_mode     = 'restart'
   prefix           = 'co'
/
&SYSTEM
   ecutwfc          = 30
   ntyp             = 2
   nat              = 2
   ibrav            = 0
/
&ELECTRONS
/
&IONS
/
&CELL
/

ATOMIC_SPECIES
O 15.999 O.pbe-n-rrkjus_psl.1.0.0.UPF
C 12.011 C.pbe-n-rrkjus_psl.1.0.0.UPF

K_POINTS automatic
1 1 1  0 0 0

CELL_PARAMETERS angstrom
9.99999982150825 0.00000000000000 0.00000000000000
0.00000000000000 9.99999982150825 0.00000000000000
0.00000000000000 0.00000000000000 11.15033980097563

ATOMIC_POSITIONS angstrom
O 4.9999999108 4.9999999108 6.1503398902 
C 4.9999999108 4.9999999108 4.9999999108 
