&CONTROL
   calculation      = 'scf'
   verbosity        = 'high'
   prefix           = 'mno'
/
&SYSTEM
   ecutwfc          = 70.0
   ecutrho          = 840.0
   occupations      = 'smearing'
   degauss          = 0.01
   smearing         = 'gaussian'
   nspin            = 2
   lda_plus_u       = .true.
   starting_magnetization(1) = 1.0
   starting_magnetization(2) = -1.0
   starting_magnetization(3) = -1.0
   starting_magnetization(4) = 1.0
   starting_magnetization(6) = 1.0
   hubbard_u(1)     = 5.7504
   hubbard_u(2)     = 5.7606
   hubbard_u(3)     = 5.749
   hubbard_u(4)     = 5.7551
   hubbard_u(6)     = 3.0
   starting_charge(1) = 1
   ntyp             = 7
   nat              = 40
   ibrav            = 0
/
&ELECTRONS
   conv_thr         = 1e-10
   mixing_beta      = 0.6
   diagonalization  = 'david'
   startingwfc      = 'atomic'
/
&IONS
/
&CELL
/

ATOMIC_SPECIES
Mn1 54.938044 Mn.pbesol-spn-rrkjus_psl.0.3.1.UPF
Mn2 54.938044 Mn.pbesol-spn-rrkjus_psl.0.3.1.UPF
Mn3 54.938044 Mn.pbesol-spn-rrkjus_psl.0.3.1.UPF
Mn4 54.938044 Mn.pbesol-spn-rrkjus_psl.0.3.1.UPF
O 15.999 O.pbesol-n-rrkjus_psl.1.0.0.UPF
O1 15.999 O.pbesol-n-rrkjus_psl.1.0.0.UPF
Sr 87.62 Sr.pbesol-spn-rrkjus_psl.1.0.0.UPF

K_POINTS automatic
6 6 6  0 0 0

CELL_PARAMETERS angstrom
7.68037000000000 0.00000000000000 0.00000000000000
0.00000000000000 7.61764000000000 0.00000000000000
-0.09628397252373 0.00000000000000 7.67976645045506

ATOMIC_POSITIONS angstrom
Mn1 5.7362065069 0.0000000000 1.9199416126 
Mn1 1.8478795206 0.0000000000 5.7598248378 
Mn2 1.8960215069 0.0000000000 1.9199416126 
Mn2 5.6880645206 0.0000000000 5.7598248378 
Mn3 5.7362833106 3.8088200000 1.9199416126 
Mn3 1.8478795206 3.8088200000 5.7598248378 
Mn4 1.8959447032 3.8088200000 1.9199416126 
Mn4 5.6881413243 3.8088200000 5.7598248378 
O 1.6980346366 1.9044100000 2.1149308828 
O 5.4901554169 1.9044100000 5.9547373104 
O 5.8861281946 5.7132300000 5.5648355677 
O 2.0939315734 5.7132300000 1.7249523424 
O 5.5388273263 5.7132300000 2.1154684664 
O 1.6504235364 5.7132300000 5.9553516917 
O 2.0452587011 1.9044100000 5.5642979840 
O1 5.9336624911 1.9044100000 1.7244147588 
O 5.7427004978 0.2119989212 3.8401136182 
O 1.9506574841 0.2119989212 0.0002303930 
O 1.8413855297 7.4056410788 3.8396528322 
O 5.6335053471 7.4056410788 7.6795360575 
O 7.6564518060 7.4055649024 1.8893761421 
O 3.7681238569 7.4056410788 5.7293361650 
O -0.0723657785 0.2120750976 5.7903903083 
O 3.8159621706 0.2119989212 1.9504302854 
O 1.8413855297 4.0208189212 3.8396528322 
O 5.6335053471 4.0208950976 7.6795360575 
O 5.7427773015 3.5968210788 3.8401136182 
O 1.9505806804 3.5967449024 0.0002303930 
O -0.0723657785 3.5968210788 5.7903903083 
O 3.8159612078 3.5968210788 1.9505070831 
O 7.6564518060 4.0208189212 1.8893761421 
O 3.7681248197 4.0208189212 5.7292593674 
Sr 3.8085950622 1.9044861764 3.8428783341 
Sr 0.0164752448 1.9044100000 0.0029951089 
Sr 3.7755677690 5.7131538236 3.8368881163 
Sr 7.5676107827 5.7132300000 7.6767713415 
Sr 7.6295164837 5.7132300000 3.8233717274 
Sr 3.7411126937 5.7131538236 7.6632549526 
Sr -0.0453536525 1.9044100000 3.8563947231 
Sr 3.8429733338 1.9044861764 0.0165114979 

